NAME          COPTPROB
OBJSENSE
  MIN
ROWS
 N  __OBJ___
 L  C1      
 L  C4      
 L  C32     
 L  C53     
 L  C149    
 L  C156    
 L  C164    
 L  C167    
 L  C169    
 L  C182    
 L  C183    
COLUMNS
    MARKER    'MARKER'                 'INTORG'
    x52       __OBJ___  179
    x52       C4        -1
    x52       C169      -1
    x130      __OBJ___  150
    x130      C1        -1
    x130      C183      -1
    x330      __OBJ___  96
    x330      C156      -1
    x330      C182      -1
    x335      __OBJ___  122
    x335      C183      -1
    x358      __OBJ___  153
    x358      C53       -1
    x358      C149      -1
    x406      __OBJ___  180
    x406      C167      -1
    x406      C169      -1
    x445      __OBJ___  18
    x445      C32       -1
    x445      C149      -1
    x578      __OBJ___  208
    x578      C182      -1
    x578      C183      -1
    x644      __OBJ___  229
    x644      C53       -1
    x644      C182      -1
    x661      __OBJ___  2
    x661      C4        -1
    x661      C32       -1
    x686      __OBJ___  188
    x686      C167      -1
    x686      C183      -1
    x695      __OBJ___  138
    x695      C167      -1
    x705      __OBJ___  307
    x705      C156      -1
    x705      C164      -1
    x767      __OBJ___  284
    x767      C1        -1
    x767      C164      -1
    MARKER    'MARKER'                 'INTEND'
RHS
    RHS       __OBJ___  -17868
    RHS       C1        -1
    RHS       C4        -1
    RHS       C32       -1
    RHS       C53       -1
    RHS       C149      -1
    RHS       C156      -1
    RHS       C164      -1
    RHS       C167      -1
    RHS       C169      -1
    RHS       C182      -1
    RHS       C183      -1
BOUNDS
 UP BOUND     x52       1
 UP BOUND     x130      1
 UP BOUND     x330      1
 UP BOUND     x335      1
 UP BOUND     x358      1
 UP BOUND     x406      1
 UP BOUND     x445      1
 UP BOUND     x578      1
 UP BOUND     x644      1
 UP BOUND     x661      1
 UP BOUND     x686      1
 UP BOUND     x695      1
 UP BOUND     x705      1
 UP BOUND     x767      1
ENDATA
